92
0 31 10 5 60 43 12 72 80 77 
49 41 53 37 73 42 47 57 30 21 
56 40 58 36 50 65 16 19 28 68 
70 74 90 34 24 27 51 7 14 13 
22 61 86 78 48 25 55 38 63 69 
45 11 82 71 52 46 67 85 59 76 
66 2 54 15 35 88 75 87 29 6 
23 91 4 8 79 32 89 83 18 81 
44 3 64 1 33 20 39 17 84 62 
26 9 
